% For bridge_and_torch_problem.mzn
% Data from
% Martin Erwig
% Escape from Zurg: An Exercise in Logic Programming
% http://web.engr.oregonstate.edu/~erwig/papers/Zurg_JFP04.pdf

max_time = 60;
max_num_to_cross = 2;
num_persons = 4;
cross_time = [5,10,20,25];
